r = [
0,142,135,134,38,149,107,149,67,64,36,109,64,24,45,53,92,110,115,132,89,50,80,129,108,146,0
];
p = [
0,20,24,5,5,12,26,11,24,13,7,18,2,12,17,17,23,25,29,22,5,1,1,11,17,3,0
];
e = [
0,11,19,18,3,7,15,8,17,4,1,6,18,7,8,18,1,6,13,13,3,6,5,18,12,8,0
];
d = [
0,249,336,361,235,264,254,392,208,171,297,228,220,245,144,257,254,333,274,281,218,240,250,261,281,382,398
];
d_bar = [
0,259,348,364,238,270,267,398,220,178,301,237,221,251,153,266,266,346,289,292,221,241,251,267,290,384,398
];
w = [
0,1.1,1.583333333,6,1,1.166666667,1.153846154,1.333333333,1.416666667,0.571428571,0.25,0.666666667,18,1.166666667,0.888888889,2,0.083333333,0.461538462,0.866666667,1.181818182,1,6,5,3,1.333333333,4,0
];
